NAME          ClpDefau
ROWS
 N  OBJROW
 L  R0000000
 L  R0000001
 L  R0000002
 L  R0000003
 L  R0000004
 L  R0000005
 L  R0000006
 E  R0000007
 E  R0000008
 L  R0000009
 E  R0000010
 E  R0000011
 L  R0000012
 L  R0000013
 E  R0000014
 L  R0000015
 L  R0000016
 L  R0000017
 L  R0000018
 L  R0000019
 L  R0000020
 L  R0000021
 L  R0000022
 L  R0000023
 L  R0000024
 L  R0000025
 L  R0000026
 L  R0000027
 L  R0000028
 L  R0000029
 L  R0000030
 L  R0000031
 L  R0000032
 L  R0000033
 L  R0000034
 L  R0000035
 L  R0000036
 L  R0000037
 L  R0000038
 L  R0000039
 L  R0000040
 L  R0000041
 L  R0000042
 L  R0000043
 L  R0000044
 L  R0000045
 L  R0000046
 L  R0000047
 L  R0000048
 L  R0000049
 L  R0000050
 L  R0000051
 N  R0000052
 N  R0000053
 N  R0000054
COLUMNS
    C0000000  R0000000  1.             R0000015  1.          
    C0000000  R0000027   -2.           R0000039  2.          
    C0000001  R0000000  1.             R0000018  1.          
    C0000001  R0000030   -2.           R0000040  2.          
    C0000002  R0000000  1.             R0000021  1.          
    C0000002  R0000033   -2.           R0000041  2.          
    C0000003  R0000003  1.             R0000018  1.          
    C0000003  R0000030   -2.           R0000042  2.          
    C0000004  R0000003  1.             R0000021  1.          
    C0000004  R0000033   -2.           R0000043  2.          
    C0000005  R0000015   -1.           R0000018  1.          
    C0000005  R0000027  1.             R0000030   -2.        
    C0000005  R0000044  2.          
    C0000006  R0000015   -1.           R0000024  1.          
    C0000006  R0000027  1.             R0000036   -2.        
    C0000006  R0000045  2.          
    C0000007  R0000015  1.             R0000018   -1.        
    C0000007  R0000027   -2.           R0000030  1.          
    C0000007  R0000046  2.          
    C0000008  R0000018   -1.           R0000021  1.          
    C0000008  R0000030  1.             R0000033   -2.        
    C0000008  R0000047  2.          
    C0000009  R0000018  1.             R0000021   -1.        
    C0000009  R0000030   -2.           R0000033  1.          
    C0000009  R0000048  2.          
    C0000010  R0000021   -1.           R0000024  1.          
    C0000010  R0000033  1.             R0000036   -2.        
    C0000010  R0000049  2.          
    C0000011  R0000015  1.             R0000024   -1.        
    C0000011  R0000027   -2.           R0000036  1.          
    C0000011  R0000050  2.          
    C0000012  R0000021  1.             R0000024   -1.        
    C0000012  R0000033   -2.           R0000036  1.          
    C0000012  R0000051  2.          
    C0000013  R0000007  1.             R0000015   -1.        
    C0000013  R0000027  1.             R0000052  2.          
    C0000014  OBJROW    1.             R0000009  1.          
    C0000014  R0000021   -1.           R0000033  1.          
    C0000014  R0000053  2.          
    C0000015  OBJROW    1.             R0000012  1.          
    C0000015  R0000024   -1.           R0000036  1.          
    C0000015  R0000054  2.          
    C0000016  R0000001  1.             R0000016  1.          
    C0000016  R0000028   -2.           R0000039  2.          
    C0000017  R0000001  1.             R0000019  1.          
    C0000017  R0000031   -2.           R0000040  2.          
    C0000018  R0000001  1.             R0000022  1.          
    C0000018  R0000034   -2.           R0000041  2.          
    C0000019  R0000004  1.             R0000019  1.          
    C0000019  R0000031   -2.           R0000042  2.          
    C0000020  R0000004  1.             R0000022  1.          
    C0000020  R0000034   -2.           R0000043  2.          
    C0000021  R0000016   -1.           R0000019  1.          
    C0000021  R0000028  1.             R0000031   -2.        
    C0000021  R0000044  2.          
    C0000022  R0000016   -1.           R0000025  1.          
    C0000022  R0000028  1.             R0000037   -2.        
    C0000022  R0000045  2.          
    C0000023  R0000016  1.             R0000019   -1.        
    C0000023  R0000028   -2.           R0000031  1.          
    C0000023  R0000046  2.          
    C0000024  R0000019   -1.           R0000022  1.          
    C0000024  R0000031  1.             R0000034   -2.        
    C0000024  R0000047  2.          
    C0000025  R0000019  1.             R0000022   -1.        
    C0000025  R0000031   -2.           R0000034  1.          
    C0000025  R0000048  2.          
    C0000026  R0000022   -1.           R0000025  1.          
    C0000026  R0000034  1.             R0000037   -2.        
    C0000026  R0000049  2.          
    C0000027  R0000016  1.             R0000025   -1.        
    C0000027  R0000028   -2.           R0000037  1.          
    C0000027  R0000050  2.          
    C0000028  R0000022  1.             R0000025   -1.        
    C0000028  R0000034   -2.           R0000037  1.          
    C0000028  R0000051  2.          
    C0000029  R0000008  1.             R0000016   -1.        
    C0000029  R0000028  1.             R0000052  2.          
    C0000030  R0000010  1.             R0000022   -1.        
    C0000030  R0000034  1.             R0000053  2.          
    C0000031  OBJROW    1.             R0000013  1.          
    C0000031  R0000025   -1.           R0000037  1.          
    C0000031  R0000054  2.          
    C0000032  R0000002  1.             R0000017  1.          
    C0000032  R0000029   -2.           R0000039  2.          
    C0000033  R0000002  1.             R0000020  1.          
    C0000033  R0000032   -2.           R0000040  2.          
    C0000034  R0000002  1.             R0000023  1.          
    C0000034  R0000035   -2.           R0000041  2.          
    C0000035  R0000005  1.             R0000020  1.          
    C0000035  R0000032   -2.           R0000042  2.          
    C0000036  R0000005  1.             R0000023  1.          
    C0000036  R0000035   -2.           R0000043  2.          
    C0000037  R0000017   -1.           R0000020  1.          
    C0000037  R0000029  1.             R0000032   -2.        
    C0000037  R0000044  2.          
    C0000038  R0000017   -1.           R0000026  1.          
    C0000038  R0000029  1.             R0000038   -2.        
    C0000038  R0000045  2.          
    C0000039  R0000017  1.             R0000020   -1.        
    C0000039  R0000029   -2.           R0000032  1.          
    C0000039  R0000046  2.          
    C0000040  R0000020   -1.           R0000023  1.          
    C0000040  R0000032  1.             R0000035   -2.        
    C0000040  R0000047  2.          
    C0000041  R0000020  1.             R0000023   -1.        
    C0000041  R0000032   -2.           R0000035  1.          
    C0000041  R0000048  2.          
    C0000042  R0000023   -1.           R0000026  1.          
    C0000042  R0000035  1.             R0000038   -2.        
    C0000042  R0000049  2.          
    C0000043  R0000017  1.             R0000026   -1.        
    C0000043  R0000029   -2.           R0000038  1.          
    C0000043  R0000050  2.          
    C0000044  R0000023  1.             R0000026   -1.        
    C0000044  R0000035   -2.           R0000038  1.          
    C0000044  R0000051  2.          
    C0000045  OBJROW    1.             R0000006  1.          
    C0000045  R0000017   -1.           R0000029  1.          
    C0000045  R0000052  2.          
    C0000046  R0000011  1.             R0000023   -1.        
    C0000046  R0000035  1.             R0000053  2.          
    C0000047  R0000014  1.             R0000026   -1.        
    C0000047  R0000038  1.             R0000054  2.          
RHS
    RHS       R0000000  1.             R0000001  1.          
    RHS       R0000002  1.             R0000003  1.          
    RHS       R0000004  1.             R0000005  1.          
    RHS       R0000006  1.             R0000009  1.          
    RHS       R0000012  1.             R0000013  1.          
    RHS       R0000039  4.             R0000040  4.          
    RHS       R0000041  4.             R0000042  4.          
    RHS       R0000043  4.             R0000044  4.          
    RHS       R0000045  4.             R0000046  4.          
    RHS       R0000047  4.             R0000048  4.          
    RHS       R0000049  4.             R0000050  4.          
    RHS       R0000051  4.          
BOUNDS
 UI BOUND     C0000000         1e+30
 UI BOUND     C0000001         1e+30
 UI BOUND     C0000002         1e+30
 UI BOUND     C0000003         1e+30
 UI BOUND     C0000004         1e+30
 UI BOUND     C0000005         1e+30
 UI BOUND     C0000006         1e+30
 UI BOUND     C0000007         1e+30
 UI BOUND     C0000008         1e+30
 UI BOUND     C0000009         1e+30
 UI BOUND     C0000010         1e+30
 UI BOUND     C0000011         1e+30
 UI BOUND     C0000012         1e+30
 UI BOUND     C0000013         1e+30
 UI BOUND     C0000014         1e+30
 UI BOUND     C0000015         1e+30
 UI BOUND     C0000016         1e+30
 UI BOUND     C0000017         1e+30
 UI BOUND     C0000018         1e+30
 UI BOUND     C0000019         1e+30
 UI BOUND     C0000020         1e+30
 UI BOUND     C0000021         1e+30
 UI BOUND     C0000022         1e+30
 UI BOUND     C0000023         1e+30
 UI BOUND     C0000024         1e+30
 UI BOUND     C0000025         1e+30
 UI BOUND     C0000026         1e+30
 UI BOUND     C0000027         1e+30
 UI BOUND     C0000028         1e+30
 UI BOUND     C0000029         1e+30
 UI BOUND     C0000030         1e+30
 UI BOUND     C0000031         1e+30
 UI BOUND     C0000032         1e+30
 UI BOUND     C0000033         1e+30
 UI BOUND     C0000034         1e+30
 UI BOUND     C0000035         1e+30
 UI BOUND     C0000036         1e+30
 UI BOUND     C0000037         1e+30
 UI BOUND     C0000038         1e+30
 UI BOUND     C0000039         1e+30
 UI BOUND     C0000040         1e+30
 UI BOUND     C0000041         1e+30
 UI BOUND     C0000042         1e+30
 UI BOUND     C0000043         1e+30
 UI BOUND     C0000044         1e+30
 UI BOUND     C0000045         1e+30
 UI BOUND     C0000046         1e+30
 UI BOUND     C0000047         1e+30
ENDATA
